p cnf 93 304
e 4 5 6 13 14 15 22 23 24 31 32 33 40 41 42 49 50 51 58 59 60 67 68 69 76 77 78 85 86 87 0
r 0.5 3 0r 0.850000 7 0
r 0.150000 8 0
r 0.850000 16 0
r 0.150000 17 0
r 0.850000 25 0
r 0.150000 26 0
r 0.850000 34 0
r 0.150000 35 0
r 0.850000 43 0
r 0.150000 44 0
r 0.850000 52 0
r 0.150000 53 0
r 0.850000 61 0
r 0.150000 62 0
r 0.850000 70 0
r 0.150000 71 0
r 0.850000 79 0
r 0.150000 80 0
r 0.850000 88 0
r 0.150000 89 0
e 1 2 9 10 11 12 18 19 20 21 27 28 29 30 36 37 38 39 45 46 47 48 54 55 56 57 63 64 65 66 72 73 74 75 81 82 83 84 90 91 92 93 0
-1 0
-2 0
-92 0
93 0
4 5 6 0
-4 -5 0
-4 -6 0
-5 -6 0
-4 -3 -7 10 0
-4 -3 7 -10 0
-4 3 -8 10 0
-4 3 8 -10 0
-5 -10 0
-6 -10 0
-4 -3 9 0
-4 3 -9 0
-5 -3 9 0
-5 3 -9 0
-6 -3 9 0
-6 3 -9 0
-4 -1 11 0
-4 1 -11 0
-5 -1 11 0
-5 1 -3 11 0
-5 1 3 -11 0
-6 -1 11 0
-6 1 -3 -11 0
-6 1 3 11 0
-4 -2 12 0
-4 2 -12 0
-5 -3 -12 0
-5 3 12 0
-6 -3 12 0
-6 3 -12 0
13 14 15 0
-13 -14 0
-13 -15 0
-14 -15 0
-13 -9 -16 19 0
-13 -9 16 -19 0
-13 9 -17 19 0
-13 9 17 -19 0
-14 -19 0
-15 -19 0
-13 -9 18 0
-13 9 -18 0
-14 -9 18 0
-14 9 -18 0
-15 -9 18 0
-15 9 -18 0
-13 -11 20 0
-13 11 -20 0
-14 -11 20 0
-14 11 -9 20 0
-14 11 9 -20 0
-15 -11 20 0
-15 11 -9 -20 0
-15 11 9 20 0
-13 -12 21 0
-13 12 -21 0
-14 -9 -21 0
-14 9 21 0
-15 -9 21 0
-15 9 -21 0
22 23 24 0
-22 -23 0
-22 -24 0
-23 -24 0
-22 -18 -25 28 0
-22 -18 25 -28 0
-22 18 -26 28 0
-22 18 26 -28 0
-23 -28 0
-24 -28 0
-22 -18 27 0
-22 18 -27 0
-23 -18 27 0
-23 18 -27 0
-24 -18 27 0
-24 18 -27 0
-22 -20 29 0
-22 20 -29 0
-23 -20 29 0
-23 20 -18 29 0
-23 20 18 -29 0
-24 -20 29 0
-24 20 -18 -29 0
-24 20 18 29 0
-22 -21 30 0
-22 21 -30 0
-23 -18 -30 0
-23 18 30 0
-24 -18 30 0
-24 18 -30 0
31 32 33 0
-31 -32 0
-31 -33 0
-32 -33 0
-31 -27 -34 37 0
-31 -27 34 -37 0
-31 27 -35 37 0
-31 27 35 -37 0
-32 -37 0
-33 -37 0
-31 -27 36 0
-31 27 -36 0
-32 -27 36 0
-32 27 -36 0
-33 -27 36 0
-33 27 -36 0
-31 -29 38 0
-31 29 -38 0
-32 -29 38 0
-32 29 -27 38 0
-32 29 27 -38 0
-33 -29 38 0
-33 29 -27 -38 0
-33 29 27 38 0
-31 -30 39 0
-31 30 -39 0
-32 -27 -39 0
-32 27 39 0
-33 -27 39 0
-33 27 -39 0
40 41 42 0
-40 -41 0
-40 -42 0
-41 -42 0
-40 -36 -43 46 0
-40 -36 43 -46 0
-40 36 -44 46 0
-40 36 44 -46 0
-41 -46 0
-42 -46 0
-40 -36 45 0
-40 36 -45 0
-41 -36 45 0
-41 36 -45 0
-42 -36 45 0
-42 36 -45 0
-40 -38 47 0
-40 38 -47 0
-41 -38 47 0
-41 38 -36 47 0
-41 38 36 -47 0
-42 -38 47 0
-42 38 -36 -47 0
-42 38 36 47 0
-40 -39 48 0
-40 39 -48 0
-41 -36 -48 0
-41 36 48 0
-42 -36 48 0
-42 36 -48 0
49 50 51 0
-49 -50 0
-49 -51 0
-50 -51 0
-49 -45 -52 55 0
-49 -45 52 -55 0
-49 45 -53 55 0
-49 45 53 -55 0
-50 -55 0
-51 -55 0
-49 -45 54 0
-49 45 -54 0
-50 -45 54 0
-50 45 -54 0
-51 -45 54 0
-51 45 -54 0
-49 -47 56 0
-49 47 -56 0
-50 -47 56 0
-50 47 -45 56 0
-50 47 45 -56 0
-51 -47 56 0
-51 47 -45 -56 0
-51 47 45 56 0
-49 -48 57 0
-49 48 -57 0
-50 -45 -57 0
-50 45 57 0
-51 -45 57 0
-51 45 -57 0
58 59 60 0
-58 -59 0
-58 -60 0
-59 -60 0
-58 -54 -61 64 0
-58 -54 61 -64 0
-58 54 -62 64 0
-58 54 62 -64 0
-59 -64 0
-60 -64 0
-58 -54 63 0
-58 54 -63 0
-59 -54 63 0
-59 54 -63 0
-60 -54 63 0
-60 54 -63 0
-58 -56 65 0
-58 56 -65 0
-59 -56 65 0
-59 56 -54 65 0
-59 56 54 -65 0
-60 -56 65 0
-60 56 -54 -65 0
-60 56 54 65 0
-58 -57 66 0
-58 57 -66 0
-59 -54 -66 0
-59 54 66 0
-60 -54 66 0
-60 54 -66 0
67 68 69 0
-67 -68 0
-67 -69 0
-68 -69 0
-67 -63 -70 73 0
-67 -63 70 -73 0
-67 63 -71 73 0
-67 63 71 -73 0
-68 -73 0
-69 -73 0
-67 -63 72 0
-67 63 -72 0
-68 -63 72 0
-68 63 -72 0
-69 -63 72 0
-69 63 -72 0
-67 -65 74 0
-67 65 -74 0
-68 -65 74 0
-68 65 -63 74 0
-68 65 63 -74 0
-69 -65 74 0
-69 65 -63 -74 0
-69 65 63 74 0
-67 -66 75 0
-67 66 -75 0
-68 -63 -75 0
-68 63 75 0
-69 -63 75 0
-69 63 -75 0
76 77 78 0
-76 -77 0
-76 -78 0
-77 -78 0
-76 -72 -79 82 0
-76 -72 79 -82 0
-76 72 -80 82 0
-76 72 80 -82 0
-77 -82 0
-78 -82 0
-76 -72 81 0
-76 72 -81 0
-77 -72 81 0
-77 72 -81 0
-78 -72 81 0
-78 72 -81 0
-76 -74 83 0
-76 74 -83 0
-77 -74 83 0
-77 74 -72 83 0
-77 74 72 -83 0
-78 -74 83 0
-78 74 -72 -83 0
-78 74 72 83 0
-76 -75 84 0
-76 75 -84 0
-77 -72 -84 0
-77 72 84 0
-78 -72 84 0
-78 72 -84 0
85 86 87 0
-85 -86 0
-85 -87 0
-86 -87 0
-85 -81 -88 91 0
-85 -81 88 -91 0
-85 81 -89 91 0
-85 81 89 -91 0
-86 -91 0
-87 -91 0
-85 -81 90 0
-85 81 -90 0
-86 -81 90 0
-86 81 -90 0
-87 -81 90 0
-87 81 -90 0
-85 -83 92 0
-85 83 -92 0
-86 -83 92 0
-86 83 -81 92 0
-86 83 81 -92 0
-87 -83 92 0
-87 83 -81 -92 0
-87 83 81 92 0
-85 -84 93 0
-85 84 -93 0
-86 -81 -93 0
-86 81 93 0
-87 -81 93 0
-87 81 -93 0
